Minimize
 
Subject To
 Cycle.0,4: - -0 k_{0,4} >= -46.00026932
 Cycle.1,4: - -0 k_{1,4} >= -40.00027278
 Cycle.2,4: - -0 k_{2,4} >= -45.07433675
 Cycle.3,4: - -0 k_{3,4} >= -65.02625035
 Cycle.0,3: - -0 k_{0,3} >= -24.610554
 Cycle.0,4,3: - 47.610554 k_{0,3} + 78.00026932 k_{0,4}
   - 80.02625035 k_{3,4} >= -43.00026932
 Cycle.0,3,4: 47.610554 k_{0,3} - 78.00026932 k_{0,4} + 80.02625035 k_{3,4}
   >= -92.63680435
 Cycle.1,3: - -0 k_{1,3} >= -18.22094572
 Cycle.1,4,3: - 48.22094572 k_{1,3} + 79.00027278 k_{1,4}
   - 80.02625035 k_{3,4} >= -37.00027278
 Cycle.1,3,4: 48.22094572 k_{1,3} - 79.00027278 k_{1,4}
   + 80.02625035 k_{3,4} >= -86.24719607
 Cycle.2,3: - -0 k_{2,3} >= -24.43498477
 Cycle.2,4,3: - 46.43498477 k_{2,3} + 76.07433675 k_{2,4}
   - 80.02625035 k_{3,4} >= -42.07433675
 Cycle.2,3,4: 46.43498477 k_{2,3} - 76.07433675 k_{2,4}
   + 80.02625035 k_{3,4} >= -92.46123511
 Cycle.0,2: - -0 k_{0,2} >= -6.259415534
 Cycle.0,4,2: - 45.25941553 k_{0,2} + 78.00026932 k_{0,4}
   - 76.07433675 k_{2,4} >= -27.00026932
 Cycle.0,2,4: 45.25941553 k_{0,2} - 78.00026932 k_{0,4}
   + 76.07433675 k_{2,4} >= -70.33375228
 Cycle.0,3,2: - 45.25941553 k_{0,2} + 47.610554 k_{0,3}
   - 46.43498477 k_{2,3} >= -5.610554003
 Cycle.0,4,3,2: - 45.25941553 k_{0,2} + 78.00026932 k_{0,4}
   - 46.43498477 k_{2,3} - 80.02625035 k_{3,4} >= -24.00026932
 Cycle.0,3,4,2: - 45.25941553 k_{0,2} + 47.610554 k_{0,3}
   - 76.07433675 k_{2,4} + 80.02625035 k_{3,4} >= -73.63680435
 Cycle.0,3,2,4: 47.610554 k_{0,3} - 78.00026932 k_{0,4}
   - 46.43498477 k_{2,3} + 76.07433675 k_{2,4} >= -69.68489075
 Cycle.0,2,3: 45.25941553 k_{0,2} - 47.610554 k_{0,3} + 46.43498477 k_{2,3}
   >= -49.6944003
 Cycle.0,4,2,3: - 47.610554 k_{0,3} + 78.00026932 k_{0,4}
   + 46.43498477 k_{2,3} - 76.07433675 k_{2,4} >= -70.43525409
 Cycle.0,2,4,3: 45.25941553 k_{0,2} - 47.610554 k_{0,3}
   + 76.07433675 k_{2,4} - 80.02625035 k_{3,4} >= -67.33375228
 Cycle.0,2,3,4: 45.25941553 k_{0,2} - 78.00026932 k_{0,4}
   + 46.43498477 k_{2,3} + 80.02625035 k_{3,4} >= -117.7206506
 Cycle.1,2: - -0 k_{1,2} >= -91.51899335
 Cycle.1,4,2: - 137.5189934 k_{1,2} + 79.00027278 k_{1,4}
   - 76.07433675 k_{2,4} >= -21.00027278
 Cycle.1,2,4: 137.5189934 k_{1,2} - 79.00027278 k_{1,4}
   + 76.07433675 k_{2,4} >= -155.5933301
 Cycle.1,3,2: - 137.5189934 k_{1,2} + 48.22094572 k_{1,3}
   - 46.43498477 k_{2,3} >= 0.7790542791
 Cycle.1,4,3,2: - 137.5189934 k_{1,2} + 79.00027278 k_{1,4}
   - 46.43498477 k_{2,3} - 80.02625035 k_{3,4} >= -18.00027278
 Cycle.1,3,4,2: - 137.5189934 k_{1,2} + 48.22094572 k_{1,3}
   - 76.07433675 k_{2,4} + 80.02625035 k_{3,4} >= -67.24719607
 Cycle.1,3,2,4: 48.22094572 k_{1,3} - 79.00027278 k_{1,4}
   - 46.43498477 k_{2,3} + 76.07433675 k_{2,4} >= -63.29528247
 Cycle.1,2,3: 137.5189934 k_{1,2} - 48.22094572 k_{1,3}
   + 46.43498477 k_{2,3} >= -134.9539781
 Cycle.1,4,2,3: - 48.22094572 k_{1,3} + 79.00027278 k_{1,4}
   + 46.43498477 k_{2,3} - 76.07433675 k_{2,4} >= -64.43525755
 Cycle.1,2,4,3: 137.5189934 k_{1,2} - 48.22094572 k_{1,3}
   + 76.07433675 k_{2,4} - 80.02625035 k_{3,4} >= -152.5933301
 Cycle.1,2,3,4: 137.5189934 k_{1,2} - 79.00027278 k_{1,4}
   + 46.43498477 k_{2,3} + 80.02625035 k_{3,4} >= -202.9802285
 Cycle.0,1: - -0 k_{0,1} >= -0.000162285
 Cycle.0,4,1: - 47.00016228 k_{0,1} + 78.00026932 k_{0,4}
   - 79.00027278 k_{1,4} >= -19.00026932
 Cycle.0,1,4: 47.00016228 k_{0,1} - 78.00026932 k_{0,4}
   + 79.00027278 k_{1,4} >= -67.00043506
 Cycle.0,3,1: - 47.00016228 k_{0,1} + 47.610554 k_{0,3}
   - 48.22094572 k_{1,3} >= 2.389445997
 Cycle.0,4,3,1: - 47.00016228 k_{0,1} + 78.00026932 k_{0,4}
   - 48.22094572 k_{1,3} - 80.02625035 k_{3,4} >= -16.00026932
 Cycle.0,3,4,1: - 47.00016228 k_{0,1} + 47.610554 k_{0,3}
   - 79.00027278 k_{1,4} + 80.02625035 k_{3,4} >= -65.63680435
 Cycle.0,3,1,4: 47.610554 k_{0,3} - 78.00026932 k_{0,4}
   - 48.22094572 k_{1,3} + 79.00027278 k_{1,4} >= -64.61082678
 Cycle.0,1,3: 47.00016228 k_{0,1} - 47.610554 k_{0,3} + 48.22094572 k_{1,3}
   >= -45.22110801
 Cycle.0,4,1,3: - 47.610554 k_{0,3} + 78.00026932 k_{0,4}
   + 48.22094572 k_{1,3} - 79.00027278 k_{1,4} >= -64.22121504
 Cycle.0,1,4,3: 47.00016228 k_{0,1} - 47.610554 k_{0,3}
   + 79.00027278 k_{1,4} - 80.02625035 k_{3,4} >= -64.00043506
 Cycle.0,1,3,4: 47.00016228 k_{0,1} - 78.00026932 k_{0,4}
   + 48.22094572 k_{1,3} + 80.02625035 k_{3,4} >= -113.2473584
 Cycle.0,2,1: - 47.00016228 k_{0,1} + 45.25941553 k_{0,2}
   - 137.5189934 k_{1,2} >= 20.74058447
 Cycle.0,4,2,1: - 47.00016228 k_{0,1} + 78.00026932 k_{0,4}
   - 137.5189934 k_{1,2} - 76.07433675 k_{2,4} >= -0.000269324
 Cycle.0,2,4,1: - 47.00016228 k_{0,1} + 45.25941553 k_{0,2}
   - 79.00027278 k_{1,4} + 76.07433675 k_{2,4} >= -43.33375228
 Cycle.0,2,1,4: 45.25941553 k_{0,2} - 78.00026932 k_{0,4}
   - 137.5189934 k_{1,2} + 79.00027278 k_{1,4} >= -46.25968831
 Cycle.0,3,2,1: - 47.00016228 k_{0,1} + 47.610554 k_{0,3}
   - 137.5189934 k_{1,2} - 46.43498477 k_{2,3} >= 21.389446
 Cycle.0,4,3,2,1: - 47.00016228 k_{0,1} + 78.00026932 k_{0,4}
   - 137.5189934 k_{1,2} - 46.43498477 k_{2,3} - 80.02625035 k_{3,4}
   >= 2.999730676
 Cycle.0,3,4,2,1: - 47.00016228 k_{0,1} + 47.610554 k_{0,3}
   - 137.5189934 k_{1,2} - 76.07433675 k_{2,4} + 80.02625035 k_{3,4}
   >= -46.63680435
 Cycle.0,3,2,4,1: - 47.00016228 k_{0,1} + 47.610554 k_{0,3}
   - 79.00027278 k_{1,4} - 46.43498477 k_{2,3} + 76.07433675 k_{2,4}
   >= -42.68489075
 Cycle.0,3,2,1,4: 47.610554 k_{0,3} - 78.00026932 k_{0,4}
   - 137.5189934 k_{1,2} + 79.00027278 k_{1,4} - 46.43498477 k_{2,3}
   >= -45.61082678
 Cycle.0,2,3,1: - 47.00016228 k_{0,1} + 45.25941553 k_{0,2}
   - 48.22094572 k_{1,3} + 46.43498477 k_{2,3} >= -22.6944003
 Cycle.0,4,2,3,1: - 47.00016228 k_{0,1} + 78.00026932 k_{0,4}
   - 48.22094572 k_{1,3} + 46.43498477 k_{2,3} - 76.07433675 k_{2,4}
   >= -43.43525409
 Cycle.0,2,4,3,1: - 47.00016228 k_{0,1} + 45.25941553 k_{0,2}
   - 48.22094572 k_{1,3} + 76.07433675 k_{2,4} - 80.02625035 k_{3,4}
   >= -40.33375228
 Cycle.0,2,3,4,1: - 47.00016228 k_{0,1} + 45.25941553 k_{0,2}
   - 79.00027278 k_{1,4} + 46.43498477 k_{2,3} + 80.02625035 k_{3,4}
   >= -90.72065065
 Cycle.0,2,3,1,4: 45.25941553 k_{0,2} - 78.00026932 k_{0,4}
   - 48.22094572 k_{1,3} + 79.00027278 k_{1,4} + 46.43498477 k_{2,3}
   >= -89.69467308
 Cycle.0,2,1,3: 45.25941553 k_{0,2} - 47.610554 k_{0,3}
   - 137.5189934 k_{1,2} + 48.22094572 k_{1,3} >= -24.48036125
 Cycle.0,4,2,1,3: - 47.610554 k_{0,3} + 78.00026932 k_{0,4}
   - 137.5189934 k_{1,2} + 48.22094572 k_{1,3} - 76.07433675 k_{2,4}
   >= -45.22121504
 Cycle.0,2,4,1,3: 45.25941553 k_{0,2} - 47.610554 k_{0,3}
   + 48.22094572 k_{1,3} - 79.00027278 k_{1,4} + 76.07433675 k_{2,4}
   >= -88.554698
 Cycle.0,2,1,4,3: 45.25941553 k_{0,2} - 47.610554 k_{0,3}
   - 137.5189934 k_{1,2} + 79.00027278 k_{1,4} - 80.02625035 k_{3,4}
   >= -43.25968831
 Cycle.0,2,1,3,4: 45.25941553 k_{0,2} - 78.00026932 k_{0,4}
   - 137.5189934 k_{1,2} + 48.22094572 k_{1,3} + 80.02625035 k_{3,4}
   >= -92.5066116
 Cycle.0,1,2: 47.00016228 k_{0,1} - 45.25941553 k_{0,2}
   + 137.5189934 k_{1,2} >= -118.5191556
 Cycle.0,4,1,2: - 45.25941553 k_{0,2} + 78.00026932 k_{0,4}
   + 137.5189934 k_{1,2} - 79.00027278 k_{1,4} >= -137.5192627
 Cycle.0,1,4,2: 47.00016228 k_{0,1} - 45.25941553 k_{0,2}
   + 79.00027278 k_{1,4} - 76.07433675 k_{2,4} >= -48.00043506
 Cycle.0,1,2,4: 47.00016228 k_{0,1} - 78.00026932 k_{0,4}
   + 137.5189934 k_{1,2} + 76.07433675 k_{2,4} >= -182.5934924
 Cycle.0,3,1,2: - 45.25941553 k_{0,2} + 47.610554 k_{0,3}
   + 137.5189934 k_{1,2} - 48.22094572 k_{1,3} >= -116.1295474
 Cycle.0,4,3,1,2: - 45.25941553 k_{0,2} + 78.00026932 k_{0,4}
   + 137.5189934 k_{1,2} - 48.22094572 k_{1,3} - 80.02625035 k_{3,4}
   >= -134.5192627
 Cycle.0,3,4,1,2: - 45.25941553 k_{0,2} + 47.610554 k_{0,3}
   + 137.5189934 k_{1,2} - 79.00027278 k_{1,4} + 80.02625035 k_{3,4}
   >= -184.1557977
 Cycle.0,3,1,4,2: - 45.25941553 k_{0,2} + 47.610554 k_{0,3}
   - 48.22094572 k_{1,3} + 79.00027278 k_{1,4} - 76.07433675 k_{2,4}
   >= -45.61082678
 Cycle.0,3,1,2,4: 47.610554 k_{0,3} - 78.00026932 k_{0,4}
   + 137.5189934 k_{1,2} - 48.22094572 k_{1,3} + 76.07433675 k_{2,4}
   >= -180.2038841
 Cycle.0,1,3,2: 47.00016228 k_{0,1} - 45.25941553 k_{0,2}
   + 48.22094572 k_{1,3} - 46.43498477 k_{2,3} >= -26.22110801
 Cycle.0,4,1,3,2: - 45.25941553 k_{0,2} + 78.00026932 k_{0,4}
   + 48.22094572 k_{1,3} - 79.00027278 k_{1,4} - 46.43498477 k_{2,3}
   >= -45.22121504
 Cycle.0,1,4,3,2: 47.00016228 k_{0,1} - 45.25941553 k_{0,2}
   + 79.00027278 k_{1,4} - 46.43498477 k_{2,3} - 80.02625035 k_{3,4}
   >= -45.00043506
 Cycle.0,1,3,4,2: 47.00016228 k_{0,1} - 45.25941553 k_{0,2}
   + 48.22094572 k_{1,3} - 76.07433675 k_{2,4} + 80.02625035 k_{3,4}
   >= -94.24735835
 Cycle.0,1,3,2,4: 47.00016228 k_{0,1} - 78.00026932 k_{0,4}
   + 48.22094572 k_{1,3} - 46.43498477 k_{2,3} + 76.07433675 k_{2,4}
   >= -90.29544475
 Cycle.0,1,2,3: 47.00016228 k_{0,1} - 47.610554 k_{0,3}
   + 137.5189934 k_{1,2} + 46.43498477 k_{2,3} >= -161.9541404
 Cycle.0,4,1,2,3: - 47.610554 k_{0,3} + 78.00026932 k_{0,4}
   + 137.5189934 k_{1,2} - 79.00027278 k_{1,4} + 46.43498477 k_{2,3}
   >= -180.9542474
 Cycle.0,1,4,2,3: 47.00016228 k_{0,1} - 47.610554 k_{0,3}
   + 79.00027278 k_{1,4} + 46.43498477 k_{2,3} - 76.07433675 k_{2,4}
   >= -91.43541983
 Cycle.0,1,2,4,3: 47.00016228 k_{0,1} - 47.610554 k_{0,3}
   + 137.5189934 k_{1,2} + 76.07433675 k_{2,4} - 80.02625035 k_{3,4}
   >= -179.5934924
 Cycle.0,1,2,3,4: 47.00016228 k_{0,1} - 78.00026932 k_{0,4}
   + 137.5189934 k_{1,2} + 46.43498477 k_{2,3} + 80.02625035 k_{3,4}
   >= -229.9803908
Bounds
 -6162 <= k_{0,1} <= 6162
 -6399 <= k_{0,2} <= 6399
 -6083 <= k_{0,3} <= 6083
 -3713 <= k_{0,4} <= 3713
 -2106 <= k_{1,2} <= 2106
 -6006 <= k_{1,3} <= 6006
 -3666 <= k_{1,4} <= 3666
 -6237 <= k_{2,3} <= 6237
 -3807 <= k_{2,4} <= 3807
 -3619 <= k_{3,4} <= 3619
Generals
 k_{0,1} k_{0,2} k_{0,3} k_{0,4} k_{1,2} k_{1,3} k_{1,4} k_{2,3} k_{2,4}
 k_{3,4}
End
